%chk=entry1_confs_1
%nprocshared=4
%mem=260MB
#opt hf/3-21g

 Conformer_1 at -23.371629409415668 MMFF energy generated from O=C1C(N=CN2[C@H]3C[C@H](O)[C@@H](CO)O3)=C2N=C(N)N1

0  1
O           4.59320         2.25130        -0.86140
C           3.96870         1.38070        -0.65370
C           2.58830         1.49770        -0.46120
N           1.77930         2.56740        -0.47910
C           0.52090         2.12870        -0.23240
N           0.50540         0.81590        -0.05870
C          -0.63490        -0.05260         0.22640
C          -1.36700         0.42040         1.47440
C          -2.81380         0.40950         0.99960
O          -3.67830        -0.12440         1.91650
C          -2.68670        -0.54460        -0.19610
C          -3.91970        -0.44010        -1.05160
O          -3.71100        -1.14690        -2.22700
O          -1.55360        -0.03160        -0.80630
C           1.78160         0.39390        -0.19570
N           2.35500        -0.81700        -0.12380
C           3.68030        -0.95790        -0.30490
N           4.28240        -2.26530        -0.22490
N           4.44990         0.12380        -0.56200
H          -0.35220         2.76320        -0.18380
H          -0.29410        -1.08670         0.36870
H          -1.23990        -0.33100         2.28850
H          -1.05790         1.42820         1.77720
H          -3.05660         1.41580         0.64870
H          -3.29670        -0.27580         2.80480
H          -2.57280        -1.56960         0.15370
H          -4.74110        -0.94570        -0.50230
H          -4.21930         0.61090        -1.22930
H          -3.81150        -2.10610        -2.01730
H           4.25760        -2.84280         0.62860
H           4.76790        -2.65060        -1.06780
H           5.47680        -0.01900        -0.69800

--Link1--
%chk=entry1_confs_1
%nprocshared=4
%mem=260MB
#opt b3lyp/6-31g(d) Geom=AllCheck Guess=Read

